
Gurobi 12.0.3 (linux64) logging started Fri Mar 27 17:27:36 2026

Set parameter LogFile to value "/home/solar-wind/WT_Solar_results_bigM100000_thread4/case24_ieee_rts_theta0.15_epsilon0.1_gurobi_seed40000_num_gen38_N_WDR250_load_scaling_factor1_EIFICA_T24_num_Solar5_num_WT10.txt"
Gurobi Optimizer version 12.0.3 build v12.0.3rc0 (linux64 - "Ubuntu 22.04.5 LTS")

CPU model: Intel(R) Xeon(R) Platinum 8378A CPU @ 3.00GHz, instruction set [SSE2|AVX|AVX2|AVX512]
Thread count: 32 physical cores, 64 logical processors, using up to 4 threads

Non-default parameters:
TimeLimit  14400
MIPGap  0.001
Seed  40000
Threads  4

Academic license 2721591 - for non-commercial use only - registered to fa___@mails.neu.edu.cn
Optimize a model with 751308 rows, 2075 columns and 63280408 nonzeros
Model fingerprint: 0x79cf0e6c
Model has 912 quadratic objective terms
Coefficient statistics:
  Matrix range     [3e-07, 7e+01]
  Objective range  [2e+01, 6e+01]
  QObjective range [4e-03, 2e-02]
  Bounds range     [0e+00, 0e+00]
  RHS range        [6e-02, 1e+03]
Presolve removed 520143 rows and 0 columns (presolve time = 5s)...
Presolve removed 521017 rows and 0 columns
Presolve time: 6.56s
Presolved: 230291 rows, 2949 columns, 4903892 nonzeros
Presolved model has 912 quadratic objective terms
Elapsed ordering time = 6s
Elapsed ordering time = 20s
Ordering time: 41.91s
Elapsed ordering time = 42s
Elapsed ordering time = 45s
Elapsed ordering time = 51s
Elapsed ordering time = 57s
Elapsed ordering time = 60s
Elapsed ordering time = 65s
Elapsed ordering time = 66s
Elapsed ordering time = 73s
Elapsed ordering time = 75s
Elapsed ordering time = 80s
Ordering time: 87.89s

Barrier statistics:
 Dense cols : 1115
 AA' NZ     : 3.001e+08
 Factor NZ  : 1.588e+09 (roughly 13.0 GB of memory)
 Factor Ops : 3.435e+13 (roughly 200 seconds per iteration)
 Threads    : 4

                  Objective                Residual
Iter       Primal          Dual         Primal    Dual     Compl     Time
   0   5.83270638e+08 -3.29383862e+08  3.80e+04 1.00e+03  9.91e+05   223s
   1   5.48210416e+08 -3.00220488e+08  3.65e+04 9.60e+02  9.52e+05   223s
   2   5.43644821e+08 -3.58029556e+08  3.63e+04 9.54e+02  9.49e+05   224s
   3   5.06132062e+08 -4.73645918e+08  3.47e+04 9.10e+02  9.23e+05   224s
   4   4.37340958e+08 -5.44066577e+08  3.16e+04 8.25e+02  8.65e+05   224s
   5   3.79621212e+08 -6.02167413e+08  2.88e+04 7.48e+02  8.11e+05   225s
   6   3.37835049e+08 -6.13728514e+08  2.66e+04 6.90e+02  7.49e+05   225s
   7   3.04448342e+08 -6.25673518e+08  2.48e+04 6.41e+02  6.97e+05   225s
   8   2.73663118e+08 -6.61207405e+08  2.31e+04 5.94e+02  6.62e+05   225s
   9   2.35839217e+08 -6.84979674e+08  2.08e+04 5.33e+02  5.95e+05   225s
  10   2.13301797e+08 -7.02168750e+08  1.94e+04 4.95e+02  5.53e+05   226s
  11   1.91536435e+08 -7.18528558e+08  1.79e+04 4.56e+02  5.11e+05   226s
  12   1.73130132e+08 -7.36585910e+08  1.65e+04 4.22e+02  4.74e+05   226s
  13   1.53937722e+08 -7.56711717e+08  1.51e+04 3.86e+02  4.33e+05   226s
  14   1.37776238e+08 -7.77238192e+08  1.39e+04 3.53e+02  3.98e+05   226s
  15   1.22987311e+08 -7.96371222e+08  1.28e+04 3.23e+02  3.64e+05   227s
  16   1.10011750e+08 -8.15406585e+08  1.17e+04 2.95e+02  3.33e+05   227s
  17   9.68138667e+07 -8.35017237e+08  1.06e+04 2.65e+02  3.00e+05   227s
  18   8.42618230e+07 -8.54537283e+08  9.49e+03 2.36e+02  2.68e+05   227s
  19   7.43239225e+07 -8.72650833e+08  8.57e+03 2.12e+02  2.41e+05   227s
  20   6.49053542e+07 -8.91628141e+08  7.67e+03 1.88e+02  2.15e+05   227s
  21   5.58477623e+07 -9.10712284e+08  6.76e+03 1.65e+02  1.89e+05   228s
  22   4.73406696e+07 -9.28864443e+08  5.86e+03 1.42e+02  1.63e+05   228s
  23   3.81336690e+07 -9.48067852e+08  4.85e+03 1.17e+02  1.35e+05   228s
  24   3.25521217e+07 -9.57610929e+08  4.20e+03 1.01e+02  1.17e+05   228s
  25   2.72472998e+07 -9.63010069e+08  3.56e+03 8.56e+01  9.97e+04   228s
  26   2.16601900e+07 -9.62778127e+08  3.33e+03 6.88e+01  8.08e+04   228s
  27   1.16229408e+07 -9.44014760e+08  2.72e+03 3.72e+01  5.04e+04   229s
  28   8.93192978e+06 -9.02916537e+08  2.16e+03 2.84e+01  3.89e+04   229s
  29   5.66217036e+06 -8.27238085e+08  1.63e+03 1.75e+01  2.62e+04   229s
  30   4.76630306e+06 -7.81519171e+08  1.37e+03 1.44e+01  2.18e+04   229s
  31   3.92549511e+06 -7.30673573e+08  1.14e+03 1.16e+01  1.77e+04   229s
  32   3.13983907e+06 -6.68667326e+08  9.11e+02 9.02e+00  1.39e+04   229s
  33   2.44740263e+06 -5.99355002e+08  6.97e+02 6.73e+00  1.05e+04   230s
  34   2.11249223e+06 -5.55492536e+08  5.80e+02 5.62e+00  8.83e+03   230s
  35   1.70334178e+06 -5.29031230e+08  4.18e+02 4.20e+00  7.17e+03   230s
  36   1.41180924e+06 -4.69463014e+08  3.13e+02 3.18e+00  5.52e+03   230s
  37   1.08246669e+06 -3.89771255e+08  1.83e+02 1.91e+00  3.58e+03   230s
  38   8.03121572e+05 -3.21860778e+08  6.80e+01 7.03e-01  2.00e+03   231s
  39   7.55692953e+05 -2.56449557e+08  5.00e+01 5.03e-01  1.47e+03   231s
  40   7.34493357e+05 -2.30018092e+08  4.08e+01 4.07e-01  1.26e+03   232s
  41   7.17261631e+05 -2.02974724e+08  3.17e+01 3.25e-01  1.07e+03   232s
  42   7.00859092e+05 -1.83531570e+08  2.45e+01 2.44e-01  9.29e+02   233s
  43   6.93531326e+05 -1.65557603e+08  2.04e+01 2.02e-01  8.19e+02   234s
  44   6.87637781e+05 -1.56538786e+08  1.61e+01 1.62e-01  7.58e+02   234s
  45   6.84651526e+05 -1.51148538e+08  1.39e+01 1.40e-01  7.23e+02   235s
  46   6.82760786e+05 -1.40866771e+08  1.22e+01 1.23e-01  6.68e+02   236s
  47   6.80031835e+05 -1.08703630e+08  8.40e+00 8.53e-02  5.07e+02   237s
  48   6.78637134e+05 -8.29769442e+07  5.72e+00 5.84e-02  3.85e+02   239s
  49   6.78631752e+05 -6.47125803e+07  3.87e+00 3.95e-02  2.94e+02   240s
  50   6.77278009e+05 -4.16937365e+07  2.10e+00 2.16e-02  1.86e+02   242s
  51   6.75606096e+05 -2.59646098e+07  1.68e+00 4.13e-03  1.14e+02   244s
  52   6.73964537e+05 -9.21424501e+06  3.91e-01 7.27e-04  4.23e+01   254s
  53   6.67764719e+05  1.53070828e+05  1.70e-02 2.95e-03  2.20e+00   398s
  54   6.22623312e+05  4.81476039e+05  2.04e-03 3.90e-04  6.03e-01   536s
  55   5.99635309e+05  5.47331027e+05  3.55e-04 6.93e-05  2.23e-01   705s
  56   5.94201056e+05  5.66068441e+05  6.21e-05 1.21e-05  1.20e-01   842s
  57   5.91446855e+05  5.79761610e+05  6.34e-06 1.24e-06  4.99e-02   978s
  58   5.90249841e+05  5.85758850e+05  1.36e-06 2.66e-07  1.92e-02  1116s
  59   5.89935696e+05  5.87263842e+05  5.88e-08 1.14e-08  1.14e-02  1254s
  60   5.89606251e+05  5.88851390e+05  5.76e-09 1.12e-09  3.22e-03  1394s
  61   5.89511867e+05  5.89300448e+05  7.42e-10 1.44e-10  9.03e-04  1538s
  62   5.89493787e+05  5.89386554e+05  5.01e-10 5.61e-11  4.58e-04  1679s
  63   5.89481562e+05  5.89443463e+05  6.54e-10 3.69e-12  1.63e-04  1822s
  64   5.89475883e+05  5.89470655e+05  4.12e-09 3.50e-12  2.23e-05  1961s
  65   5.89475036e+05  5.89474653e+05  4.83e-10 5.84e-11  1.64e-06  2093s
  66   5.89474970e+05  5.89474969e+05  7.71e-09 3.12e-11  1.89e-09  2227s

Barrier solved model in 66 iterations and 2226.92 seconds (2579.30 work units)
Optimal objective 5.89474970e+05

